50016.0,55.27,67.03
54302.76,50.91,61.74
39622.92,69.77,84.61
47930.01,57.68,69.95
47799.39,57.84,70.14
57666.08,47.94,58.14
52228.17,52.93,64.19
48923.08,56.51,68.53
47628.98,58.04,70.39
46409.07,59.57,72.24
47200.24,58.57,71.03
45996.52,60.1,72.89
50918.8,54.29,65.84
44051.43,62.76,76.11
52180.05,52.98,64.25
42404.25,65.2,79.06
44228.61,62.51,75.8
48290.67,57.25,69.43
42598.06,64.9,78.7
52832.72,52.33,63.46
